(set-logic ALL)
(declare-fun seed0_T_1 () Int)
(declare-fun seed0_T_2 () Bool)
(declare-fun seed0_var_0xINPUT_398396 () String)
(assert (and (or (>= seed0_T_1 (str.len seed0_var_0xINPUT_398396)) (or (str.suffixof (str.++ seed0_var_0xINPUT_398396 "2MlQSIskcuGJdjp13Z") (str.++ seed0_var_0xINPUT_398396 "bfBKHxsM")) (str.< (str.++ seed0_var_0xINPUT_398396 "obBkwxYN6uW3Sn7") (str.++ seed0_var_0xINPUT_398396 "2q")))) (or (= seed0_T_2 (= seed0_T_1 0)) (and (= (+ seed0_T_1 779) (* seed0_T_1 seed0_T_1)) (< (mod seed0_T_1 seed0_T_1) (div seed0_T_1 seed0_T_1)))) (or seed0_T_2 (or (str.<= (str.++ seed0_var_0xINPUT_398396 "sCzS3Wb") (str.++ seed0_var_0xINPUT_398396 "fM24k9JbYdl6")) (str.< (str.++ seed0_var_0xINPUT_398396 "w6fD8BWNMigtq") (str.++ seed0_var_0xINPUT_398396 "LUtHoI"))))))
(check-sat)
(exit)